results_rootrelaxation/bin012_080_008.srr.sol
solution status: optimal solution found
objective value:                                   17
_var723_                            0.187499999999999 	(obj:2)
_var726_                                       0.4375 	(obj:1)
_var730_                                       0.1875 	(obj:2)
_var731_                            0.125000000000001 	(obj:0)
_var732_                                        0.125 	(obj:2)
_var773_                           0.0625000000000002 	(obj:0)
_var774_                                       0.6875 	(obj:1)
_var777_                                       0.1875 	(obj:1)
_var786_                                       0.3125 	(obj:0)
_var787_                                       0.6875 	(obj:2)
_var788_                                       0.4375 	(obj:1)
_var802_                                       0.1875 	(obj:1)
_var804_                                       0.4375 	(obj:2)
_var805_                            0.374999999999999 	(obj:1)
_var811_                                        0.375 	(obj:2)
_var815_                                       0.3125 	(obj:2)
_var824_                                        0.375 	(obj:1)
_var825_                            0.437499999999999 	(obj:1)
_var832_                                        0.375 	(obj:2)
_var834_                                         0.25 	(obj:4)
_var836_                           0.0624999999999997 	(obj:2)
_var844_                            0.125000000000001 	(obj:3)
_var849_                            0.250000000000001 	(obj:0)
_var860_                            0.249999999999999 	(obj:0)
_var872_                            0.187500000000001 	(obj:2)
_var874_                                       0.3125 	(obj:1)
_var877_                                         0.25 	(obj:3)
_var878_                                       0.3125 	(obj:3)
_var879_                                       0.3125 	(obj:1)
_var880_                           0.0625000000000003 	(obj:2)
_var885_                           0.0624999999999993 	(obj:1)
_var886_                                       0.1875 	(obj:2)
_var889_                                         0.25 	(obj:4)
_var890_                           0.0624999999999999 	(obj:1)
_var893_                            0.125000000000001 	(obj:1)
_var894_                                         0.25 	(obj:1)
_var895_                                        0.125 	(obj:2)
_var904_                                       0.4375 	(obj:1)
_var910_                           0.0625000000000001 	(obj:3)
_var915_                                       0.1875 	(obj:1)
_var919_                            0.125000000000001 	(obj:3)
_var922_                                       0.1875 	(obj:2)
_var929_                           0.0624999999999997 	(obj:1)
_var930_                           0.0625000000000002 	(obj:3)
_var932_                                       0.0625 	(obj:4)
_var934_                           0.0624999999999994 	(obj:0)
