results_rootrelaxation/bin012_080_008.srr.log
SCIP version 8.0.3.5 [precision: 8 byte] [memory: block] [mode: optimized] [LP solver: Soplex 6.0.1.3] [GitHash: 438792519e]
Copyright (c) 2002-2023 Zuse Institute Berlin (ZIB)

External libraries: 
  Readline 8.1         GNU library for command line editing (gnu.org/s/readline)
  Soplex 6.0.1.3       Linear Programming Solver developed at Zuse Institute Berlin (soplex.zib.de) [GitHash: 713be0fe]
  CppAD 20180000.0     Algorithmic Differentiation of C++ algorithms developed by B. Bell (github.com/coin-or/CppAD)
  ZLIB 1.2.11          General purpose compression library by J. Gailly and M. Adler (zlib.net)
  bliss 0.77           Computing Graph Automorphism Groups by T. Junttila and P. Kaski (www.tcs.hut.fi/Software/bliss/)

user parameter file <scip.set> not found - using default parameters

srr/relaxation = TRUE

read problem <instances/bin012_080_008.srr>
============

Original problem: 
original problem has 0 variables (0 bin, 0 int, 0 impl, 0 cont) and 77 constraints

presolving:
presolving (1 rounds: 1 fast, 1 medium, 1 exhaustive):
 0 deleted vars, 0 deleted constraints, 0 added constraints, 0 tightened bounds, 0 added holes, 0 changed sides, 0 changed coefficients
 0 implications, 0 cliques
presolved problem has 0 variables (0 bin, 0 int, 0 impl, 0 cont) and 77 constraints
     77 constraints of type <linear>
Presolving Time: 0.00

 time | node  | left  |LP iter|LP it/n|mem/heur|mdpt |vars |cons |rows |cuts |sepa|confs|strbr|  dualbound   | primalbound  |  gap   | compl. 
  0.0s|     1 |     0 |     1 |     - |   710k |   0 |   1 |  77 |  77 |   0 |  0 |   0 |   0 |      --      |      --      |    Inf | unknown
r 0.1s|     1 |     0 |  1218 |     - |simplero|   0 | 712 |  77 |  77 |   0 |  0 |   0 |   0 |      --      | 3.623754e+01 |    Inf | unknown
r 0.1s|     1 |     0 |  1262 |     - |simplero|   0 | 723 |  77 |  77 |   0 |  0 |   0 |   0 |      --      | 3.553736e+01 |    Inf | unknown
r 0.1s|     1 |     0 |  1321 |     - |simplero|   0 | 734 |  77 |  77 |   0 |  0 |   0 |   0 |      --      | 3.226070e+01 |    Inf | unknown
r 0.1s|     1 |     0 |  1385 |     - |simplero|   0 | 745 |  77 |  77 |   0 |  0 |   0 |   0 |      --      | 2.837590e+01 |    Inf | unknown
r 0.1s|     1 |     0 |  1422 |     - |simplero|   0 | 756 |  77 |  77 |   0 |  0 |   0 |   0 |      --      | 2.762325e+01 |    Inf | unknown
r 0.1s|     1 |     0 |  1458 |     - |simplero|   0 | 756 |  77 |  77 |   0 |  0 |   0 |   0 |      --      | 2.680253e+01 |    Inf | unknown
r 0.1s|     1 |     0 |  1463 |     - |simplero|   0 | 756 |  77 |  77 |   0 |  0 |   0 |   0 |      --      | 2.679767e+01 |    Inf | unknown
r 0.1s|     1 |     0 |  1464 |     - |simplero|   0 | 756 |  77 |  77 |   0 |  0 |   0 |   0 |      --      | 2.679665e+01 |    Inf | unknown
r 0.1s|     1 |     0 |  1500 |     - |simplero|   0 | 767 |  77 |  77 |   0 |  0 |   0 |   0 |      --      | 2.573369e+01 |    Inf | unknown
r 0.1s|     1 |     0 |  1505 |     - |simplero|   0 | 767 |  77 |  77 |   0 |  0 |   0 |   0 |      --      | 2.571448e+01 |    Inf | unknown
r 0.1s|     1 |     0 |  1535 |     - |simplero|   0 | 778 |  77 |  77 |   0 |  0 |   0 |   0 |      --      | 2.440824e+01 |    Inf | unknown
r 0.1s|     1 |     0 |  1556 |     - |simplero|   0 | 778 |  77 |  77 |   0 |  0 |   0 |   0 |      --      | 2.424574e+01 |    Inf | unknown
r 0.1s|     1 |     0 |  1557 |     - |simplero|   0 | 778 |  77 |  77 |   0 |  0 |   0 |   0 |      --      | 2.424470e+01 |    Inf | unknown
r 0.1s|     1 |     0 |  1612 |     - |simplero|   0 | 789 |  77 |  77 |   0 |  0 |   0 |   0 |      --      | 2.251863e+01 |    Inf | unknown
 time | node  | left  |LP iter|LP it/n|mem/heur|mdpt |vars |cons |rows |cuts |sepa|confs|strbr|  dualbound   | primalbound  |  gap   | compl. 
r 0.1s|     1 |     0 |  1625 |     - |simplero|   0 | 789 |  77 |  77 |   0 |  0 |   0 |   0 |      --      | 2.239751e+01 |    Inf | unknown
r 0.1s|     1 |     0 |  1678 |     - |simplero|   0 | 800 |  77 |  77 |   0 |  0 |   0 |   0 |      --      | 2.149865e+01 |    Inf | unknown
r 0.1s|     1 |     0 |  1718 |     - |simplero|   0 | 811 |  77 |  77 |   0 |  0 |   0 |   0 |      --      | 2.053078e+01 |    Inf | unknown
r 0.1s|     1 |     0 |  1736 |     - |simplero|   0 | 811 |  77 |  77 |   0 |  0 |   0 |   0 |      --      | 2.042001e+01 |    Inf | unknown
r 0.1s|     1 |     0 |  1780 |     - |simplero|   0 | 822 |  77 |  77 |   0 |  0 |   0 |   0 |      --      | 1.989564e+01 |    Inf | unknown
r 0.1s|     1 |     0 |  1788 |     - |simplero|   0 | 822 |  77 |  77 |   0 |  0 |   0 |   0 |      --      | 1.988639e+01 |    Inf | unknown
r 0.1s|     1 |     0 |  1790 |     - |simplero|   0 | 822 |  77 |  77 |   0 |  0 |   0 |   0 |      --      | 1.988553e+01 |    Inf | unknown
r 0.1s|     1 |     0 |  1836 |     - |simplero|   0 | 833 |  77 |  77 |   0 |  0 |   0 |   0 |      --      | 1.918964e+01 |    Inf | unknown
r 0.1s|     1 |     0 |  1875 |     - |simplero|   0 | 844 |  77 |  77 |   0 |  0 |   0 |   0 |      --      | 1.870873e+01 |    Inf | unknown
r 0.1s|     1 |     0 |  1893 |     - |simplero|   0 | 844 |  77 |  77 |   0 |  0 |   0 |   0 |      --      | 1.863947e+01 |    Inf | unknown
r 0.1s|     1 |     0 |  1898 |     - |simplero|   0 | 844 |  77 |  77 |   0 |  0 |   0 |   0 |      --      | 1.863847e+01 |    Inf | unknown
r 0.1s|     1 |     0 |  1937 |     - |simplero|   0 | 855 |  77 |  77 |   0 |  0 |   0 |   0 |      --      | 1.832151e+01 |    Inf | unknown
r 0.1s|     1 |     0 |  1953 |     - |simplero|   0 | 855 |  77 |  77 |   0 |  0 |   0 |   0 |      --      | 1.829764e+01 |    Inf | unknown
  0.1s|     1 |     0 |  1956 |     - |  4148k |   0 | 855 |  77 |  77 |   0 |  0 |   0 |   0 |      --      | 1.829764e+01 |    Inf | unknown
r 0.1s|     1 |     0 |  1956 |     - |simplero|   0 | 855 |  77 |  77 |   0 |  0 |   0 |   0 |      --      | 1.829342e+01 |    Inf | unknown
 time | node  | left  |LP iter|LP it/n|mem/heur|mdpt |vars |cons |rows |cuts |sepa|confs|strbr|  dualbound   | primalbound  |  gap   | compl. 
r 0.1s|     1 |     0 |  1974 |     - |simplero|   0 | 866 |  77 |  77 |   0 |  0 |   0 |   0 |      --      | 1.805253e+01 |    Inf | unknown
r 0.1s|     1 |     0 |  1983 |     - |simplero|   0 | 866 |  77 |  77 |   0 |  0 |   0 |   0 |      --      | 1.802344e+01 |    Inf | unknown
r 0.1s|     1 |     0 |  1991 |     - |simplero|   0 | 866 |  77 |  77 |   0 |  0 |   0 |   0 |      --      | 1.800763e+01 |    Inf | unknown
r 0.1s|     1 |     0 |  1994 |     - |simplero|   0 | 866 |  77 |  77 |   0 |  0 |   0 |   0 |      --      | 1.800747e+01 |    Inf | unknown
r 0.1s|     1 |     0 |  2024 |     - |simplero|   0 | 877 |  77 |  77 |   0 |  0 |   0 |   0 |      --      | 1.780623e+01 |    Inf | unknown
r 0.1s|     1 |     0 |  2036 |     - |simplero|   0 | 877 |  77 |  77 |   0 |  0 |   0 |   0 |      --      | 1.777924e+01 |    Inf | unknown
r 0.1s|     1 |     0 |  2064 |     - |simplero|   0 | 888 |  77 |  77 |   0 |  0 |   0 |   0 |      --      | 1.752318e+01 |    Inf | unknown
r 0.1s|     1 |     0 |  2085 |     - |simplero|   0 | 898 |  77 |  77 |   0 |  0 |   0 |   0 |      --      | 1.732759e+01 |    Inf | unknown
r 0.1s|     1 |     0 |  2129 |     - |simplero|   0 | 909 |  77 |  77 |   0 |  0 |   0 |   0 |      --      | 1.710714e+01 |    Inf | unknown
r 0.1s|     1 |     0 |  2136 |     - |simplero|   0 | 909 |  77 |  77 |   0 |  0 |   0 |   0 |      --      | 1.710000e+01 |    Inf | unknown
r 0.1s|     1 |     0 |  2156 |     - |simplero|   0 | 918 |  77 |  77 |   0 |  0 |   0 |   0 |      --      | 1.702941e+01 |    Inf | unknown
r 0.1s|     1 |     0 |  2172 |     - |simplero|   0 | 927 |  77 |  77 |   0 |  0 |   0 |   0 |      --      | 1.701449e+01 |    Inf | unknown
r 0.1s|     1 |     0 |  2177 |     - |simplero|   0 | 927 |  77 |  77 |   0 |  0 |   0 |   0 |      --      | 1.701333e+01 |    Inf | unknown
r 0.1s|     1 |     0 |  2186 |     - |simplero|   0 | 932 |  77 |  77 |   0 |  0 |   0 |   0 |      --      | 1.700922e+01 |    Inf | unknown
r 0.1s|     1 |     0 |  2192 |     - |simplero|   0 | 935 |  77 |  77 |   0 |  0 |   0 |   0 |      --      | 1.700000e+01 |    Inf | unknown
 time | node  | left  |LP iter|LP it/n|mem/heur|mdpt |vars |cons |rows |cuts |sepa|confs|strbr|  dualbound   | primalbound  |  gap   | compl. 
  0.1s|     1 |     0 |  2199 |     - |  4355k |   0 | 938 |  77 |  77 |   0 |  0 |   0 |   0 | 1.700000e+01 | 1.700000e+01 |   0.00%| unknown
  0.1s|     1 |     0 |  2199 |     - |  4355k |   0 | 938 |  77 |  77 |   0 |  0 |   0 |   0 | 1.700000e+01 | 1.700000e+01 |   0.00%| unknown

SCIP Status        : problem is solved [optimal solution found]
Solving Time (sec) : 0.10
Solving Nodes      : 1
Primal Bound       : +1.70000000000000e+01 (43 solutions)
Dual Bound         : +1.70000000000000e+01
Gap                : 0.00 %

written transformed problem to file <results_rootrelaxation/bin012_080_008.srr.lp>
written transformed problem to file <results_rootrelaxation/bin012_080_008.srr.cip>

written solution information to file <results_rootrelaxation/bin012_080_008.srr.sol>



